NAME : mr64
COMMENT : 64-city problem (DISC)
TYPE : TSP
DIMENSION : 64
EDGE_WEIGHT_TYPE : EUC_2D
NODE_COORD_SECTION
1 38 47
2 57 85
3 60 44
4 45 85
5 46 7
6 32 85
7 32 33
8 30 44
9 54 27
10 40 66
11 72 8
12 55 11
13 59 29
14 17 5
15 3 97
16 21 2
17 3 61
18 64 68
19 23 95
20 40 72
21 62 33
22 1 11
23 4 48
24 38 31
25 22 56
26 41 34
27 87 33
28 26 98
29 61 80
30 23 99
31 21 8
32 18 46
33 89 87
34 68 48
35 38 81
36 2 3
37 36 61
38 31 8
39 43 55
40 40 5
41 57 74
42 58 51
43 63 5
44 25 3
45 14 83
46 25 38
47 99 1
48 96 6
49 72 83
50 77 97
51 9 53
52 91 17
53 54 48
54 10 49
55 82 16
56 54 23
57 70 31
58 34 28
59 97 40
60 26 71
61 25 84
62 10 64
63 62 66
64 52 2
EOF
